\ LP format - for model browsing. Use MPS format to capture full model detail.
Minimize
  1000 xk[1,1] + 1.414213562373095 x[1,2,1] + 1.414213562373095 x[1,3,1]
   + 5 x[1,4,1] + 1.414213562373095 x[2,1,1] + 2 x[2,3,1]
   + 6.082762530298219 x[2,4,1] + 1.414213562373095 x[3,1,1] + 2 x[3,2,1]
   + 6.082762530298219 x[3,4,1] + 5 x[4,1,1] + 6.082762530298219 x[4,2,1]
   + 6.082762530298219 x[4,3,1] + 1000 xk[2,1] + 1.414213562373095 x[1,2,2]
   + 1.414213562373095 x[1,3,2] + 5 x[1,4,2] + 1.414213562373095 x[2,1,2]
   + 2 x[2,3,2] + 6.082762530298219 x[2,4,2] + 1.414213562373095 x[3,1,2]
   + 2 x[3,2,2] + 6.082762530298219 x[3,4,2] + 5 x[4,1,2]
   + 6.082762530298219 x[4,2,2] + 6.082762530298219 x[4,3,2] + 1000 xk[3,1]
   + 1.414213562373095 x[1,2,3] + 1.414213562373095 x[1,3,3] + 5 x[1,4,3]
   + 1.414213562373095 x[2,1,3] + 2 x[2,3,3] + 6.082762530298219 x[2,4,3]
   + 1.414213562373095 x[3,1,3] + 2 x[3,2,3] + 6.082762530298219 x[3,4,3]
   + 5 x[4,1,3] + 6.082762530298219 x[4,2,3] + 6.082762530298219 x[4,3,3]
   + 3 s[2,1] + 3 s[2,2] + 3 s[2,3] + 2 s[4,1] + 2 s[4,2] + 2 s[4,3]
Subject To
 node_flow_1i1k: x[1,2,1] + x[1,3,1] + x[1,4,1] - x[2,1,1] - x[3,1,1]
   - x[4,1,1] = 0
 node_flow_1i2k: x[1,2,1] + x[1,3,1] + x[1,4,1] - x[2,1,1] - x[3,1,1]
   - x[4,1,1] + x[1,2,2] + x[1,3,2] + x[1,4,2] - x[2,1,2] - x[3,1,2]
   - x[4,1,2] = 0
 node_flow_1i3k: x[1,2,1] + x[1,3,1] + x[1,4,1] - x[2,1,1] - x[3,1,1]
   - x[4,1,1] + x[1,2,2] + x[1,3,2] + x[1,4,2] - x[2,1,2] - x[3,1,2]
   - x[4,1,2] + x[1,2,3] + x[1,3,3] + x[1,4,3] - x[2,1,3] - x[3,1,3]
   - x[4,1,3] = 0
 node_flow_2i1k: - x[1,2,1] + x[2,1,1] + x[2,3,1] + x[2,4,1] - x[3,2,1]
   - x[4,2,1] = 0
 node_flow_2i2k: - x[1,2,1] + x[2,1,1] + x[2,3,1] + x[2,4,1] - x[3,2,1]
   - x[4,2,1] - x[1,2,2] + x[2,1,2] + x[2,3,2] + x[2,4,2] - x[3,2,2]
   - x[4,2,2] = 0
 node_flow_2i3k: - x[1,2,1] + x[2,1,1] + x[2,3,1] + x[2,4,1] - x[3,2,1]
   - x[4,2,1] - x[1,2,2] + x[2,1,2] + x[2,3,2] + x[2,4,2] - x[3,2,2]
   - x[4,2,2] - x[1,2,3] + x[2,1,3] + x[2,3,3] + x[2,4,3] - x[3,2,3]
   - x[4,2,3] = 0
 node_out_2: x[2,1,1] + x[2,3,1] + x[2,4,1] + x[2,1,2] + x[2,3,2]
   + x[2,4,2] + x[2,1,3] + x[2,3,3] + x[2,4,3] = 1
 node_flow_3i1k: - x[1,3,1] - x[2,3,1] + x[3,1,1] + x[3,2,1] + x[3,4,1]
   - x[4,3,1] = 0
 node_flow_3i2k: - x[1,3,1] - x[2,3,1] + x[3,1,1] + x[3,2,1] + x[3,4,1]
   - x[4,3,1] - x[1,3,2] - x[2,3,2] + x[3,1,2] + x[3,2,2] + x[3,4,2]
   - x[4,3,2] = 0
 node_flow_3i3k: - x[1,3,1] - x[2,3,1] + x[3,1,1] + x[3,2,1] + x[3,4,1]
   - x[4,3,1] - x[1,3,2] - x[2,3,2] + x[3,1,2] + x[3,2,2] + x[3,4,2]
   - x[4,3,2] - x[1,3,3] - x[2,3,3] + x[3,1,3] + x[3,2,3] + x[3,4,3]
   - x[4,3,3] = 0
 node_out_3: x[3,1,1] + x[3,2,1] + x[3,4,1] + x[3,1,2] + x[3,2,2]
   + x[3,4,2] + x[3,1,3] + x[3,2,3] + x[3,4,3] = 1
 node_flow_4i1k: - x[1,4,1] - x[2,4,1] - x[3,4,1] + x[4,1,1] + x[4,2,1]
   + x[4,3,1] = 0
 node_flow_4i2k: - x[1,4,1] - x[2,4,1] - x[3,4,1] + x[4,1,1] + x[4,2,1]
   + x[4,3,1] - x[1,4,2] - x[2,4,2] - x[3,4,2] + x[4,1,2] + x[4,2,2]
   + x[4,3,2] = 0
 node_flow_4i3k: - x[1,4,1] - x[2,4,1] - x[3,4,1] + x[4,1,1] + x[4,2,1]
   + x[4,3,1] - x[1,4,2] - x[2,4,2] - x[3,4,2] + x[4,1,2] + x[4,2,2]
   + x[4,3,2] - x[1,4,3] - x[2,4,3] - x[3,4,3] + x[4,1,3] + x[4,2,3]
   + x[4,3,3] = 0
 node_out_4: x[4,1,1] + x[4,2,1] + x[4,3,1] + x[4,1,2] + x[4,2,2]
   + x[4,3,2] + x[4,1,3] + x[4,2,3] + x[4,3,3] = 1
 drone_payload_1: x[1,2,1] + x[1,3,1] + x[1,4,1] + x[2,1,1] + x[2,3,1]
   + x[2,4,1] + x[3,1,1] + x[3,2,1] + x[3,4,1] + x[4,1,1] + x[4,2,1]
   + x[4,3,1] <= 5
 drone_range_1: 1.414213562373095 x[1,2,1] + 1.414213562373095 x[1,3,1]
   + 5 x[1,4,1] + 1.414213562373095 x[2,1,1] + 2 x[2,3,1]
   + 6.082762530298219 x[2,4,1] + 1.414213562373095 x[3,1,1] + 2 x[3,2,1]
   + 6.082762530298219 x[3,4,1] + 5 x[4,1,1] + 6.082762530298219 x[4,2,1]
   + 6.082762530298219 x[4,3,1] <= 110
 drone_payload_2: x[1,2,2] + x[1,3,2] + x[1,4,2] + x[2,1,2] + x[2,3,2]
   + x[2,4,2] + x[3,1,2] + x[3,2,2] + x[3,4,2] + x[4,1,2] + x[4,2,2]
   + x[4,3,2] <= 5
 drone_range_2: 1.414213562373095 x[1,2,2] + 1.414213562373095 x[1,3,2]
   + 5 x[1,4,2] + 1.414213562373095 x[2,1,2] + 2 x[2,3,2]
   + 6.082762530298219 x[2,4,2] + 1.414213562373095 x[3,1,2] + 2 x[3,2,2]
   + 6.082762530298219 x[3,4,2] + 5 x[4,1,2] + 6.082762530298219 x[4,2,2]
   + 6.082762530298219 x[4,3,2] <= 110
 drone_payload_3: x[1,2,3] + x[1,3,3] + x[1,4,3] + x[2,1,3] + x[2,3,3]
   + x[2,4,3] + x[3,1,3] + x[3,2,3] + x[3,4,3] + x[4,1,3] + x[4,2,3]
   + x[4,3,3] <= 5
 drone_range_3: 1.414213562373095 x[1,2,3] + 1.414213562373095 x[1,3,3]
   + 5 x[1,4,3] + 1.414213562373095 x[2,1,3] + 2 x[2,3,3]
   + 6.082762530298219 x[2,4,3] + 1.414213562373095 x[3,1,3] + 2 x[3,2,3]
   + 6.082762530298219 x[3,4,3] + 5 x[4,1,3] + 6.082762530298219 x[4,2,3]
   + 6.082762530298219 x[4,3,3] <= 110
 drone1out_base_1: - xk[1,1] + x[1,2,1] + x[1,3,1] + x[1,4,1] = 0
 drone1in_base_1: - xk[1,1] + x[2,1,1] + x[3,1,1] + x[4,1,1] = 0
 drone1only_in_one_base_: xk[1,1] <= 1
 drone2out_base_1: - xk[2,1] + x[1,2,2] + x[1,3,2] + x[1,4,2] = 0
 drone2in_base_1: - xk[2,1] + x[2,1,2] + x[3,1,2] + x[4,1,2] = 0
 drone2only_in_one_base_: xk[2,1] <= 1
 drone3out_base_1: - xk[3,1] + x[1,2,3] + x[1,3,3] + x[1,4,3] = 0
 drone3in_base_1: - xk[3,1] + x[2,1,3] + x[3,1,3] + x[4,1,3] = 0
 drone3only_in_one_base_: xk[3,1] <= 1
 time_1i2j1k: 100 x[1,2,1] + s[1,1] - s[2,1] <= 95.58578643762691
 time_1i2j2k: 100 x[1,2,2] + s[1,2] - s[2,2] <= 95.58578643762691
 time_1i2j3k: 100 x[1,2,3] + s[1,3] - s[2,3] <= 95.58578643762691
 time_1i3j1k: 100 x[1,3,1] + s[1,1] - s[3,1] <= 95.58578643762691
 time_1i3j2k: 100 x[1,3,2] + s[1,2] - s[3,2] <= 95.58578643762691
 time_1i3j3k: 100 x[1,3,3] + s[1,3] - s[3,3] <= 95.58578643762691
 time_1i4j1k: 100 x[1,4,1] + s[1,1] - s[4,1] <= 92
 time_1i4j2k: 100 x[1,4,2] + s[1,2] - s[4,2] <= 92
 time_1i4j3k: 100 x[1,4,3] + s[1,3] - s[4,3] <= 92
 time_2i3j1k: 100 x[2,3,1] + s[2,1] - s[3,1] <= 95
 time_2i3j2k: 100 x[2,3,2] + s[2,2] - s[3,2] <= 95
 time_2i3j3k: 100 x[2,3,3] + s[2,3] - s[3,3] <= 95
 time_2i4j1k: 100 x[2,4,1] + s[2,1] - s[4,1] <= 90.91723746970177
 time_2i4j2k: 100 x[2,4,2] + s[2,2] - s[4,2] <= 90.91723746970177
 time_2i4j3k: 100 x[2,4,3] + s[2,3] - s[4,3] <= 90.91723746970177
 time_3i2j1k: 100 x[3,2,1] - s[2,1] + s[3,1] <= 95
 time_3i2j2k: 100 x[3,2,2] - s[2,2] + s[3,2] <= 95
 time_3i2j3k: 100 x[3,2,3] - s[2,3] + s[3,3] <= 95
 time_3i4j1k: 100 x[3,4,1] + s[3,1] - s[4,1] <= 90.91723746970177
 time_3i4j2k: 100 x[3,4,2] + s[3,2] - s[4,2] <= 90.91723746970177
 time_3i4j3k: 100 x[3,4,3] + s[3,3] - s[4,3] <= 90.91723746970177
 time_4i2j1k: 100 x[4,2,1] - s[2,1] + s[4,1] <= 90.91723746970177
 time_4i2j2k: 100 x[4,2,2] - s[2,2] + s[4,2] <= 90.91723746970177
 time_4i2j3k: 100 x[4,2,3] - s[2,3] + s[4,3] <= 90.91723746970177
 time_4i3j1k: 100 x[4,3,1] - s[3,1] + s[4,1] <= 90.91723746970177
 time_4i3j2k: 100 x[4,3,2] - s[3,2] + s[4,2] <= 90.91723746970177
 time_4i3j3k: 100 x[4,3,3] - s[3,3] + s[4,3] <= 90.91723746970177
Bounds
 s[1,1] <= 180
 s[1,2] <= 180
 s[1,3] <= 180
 s[2,1] <= 180
 s[2,2] <= 180
 s[2,3] <= 180
 s[3,1] <= 180
 s[3,2] <= 180
 s[3,3] <= 180
 s[4,1] <= 180
 s[4,2] <= 180
 s[4,3] <= 180
Binaries
 xk[1,1] x[1,2,1] x[1,3,1] x[1,4,1] x[2,1,1] x[2,3,1] x[2,4,1] x[3,1,1]
 x[3,2,1] x[3,4,1] x[4,1,1] x[4,2,1] x[4,3,1] xk[2,1] x[1,2,2] x[1,3,2]
 x[1,4,2] x[2,1,2] x[2,3,2] x[2,4,2] x[3,1,2] x[3,2,2] x[3,4,2] x[4,1,2]
 x[4,2,2] x[4,3,2] xk[3,1] x[1,2,3] x[1,3,3] x[1,4,3] x[2,1,3] x[2,3,3]
 x[2,4,3] x[3,1,3] x[3,2,3] x[3,4,3] x[4,1,3] x[4,2,3] x[4,3,3]
End
